50, 665
37, 26
45, 8
20, 48
5, 14
29, 9
9, 47
43, 10
42, 42
13, 36
11, 8
29, 39
39, 28
50, 3
27, 47
13, 1
11, 29
13, 48
22, 17
31, 3
15, 35
24, 27
44, 21
25, 45
43, 46
6, 26
12, 10
38, 27
25, 13
6, 38
23, 5
30, 14
3, 8
27, 7
11, 28
38, 38
22, 41
37, 19
41, 37
23, 44
49, 33
23, 32
50, 40
47, 39
37, 48
8, 16
17, 18
44, 41
48, 14
49, 48
36, 9
